lp_solutions/grafo10051.30.sol
# Objective value = 11
c_e2e20e23 1
c_e7e8e10 1
c_e7e8e17 0
c_e7e8e18 0
c_e7e8e21 0
c_e7e8e29 0
c_e7e8e33 0
c_e7e10e17 0
c_e7e10e18 0
c_e7e10e21 0
c_e7e10e29 0
c_e7e10e33 0
c_e7e17e18 0
c_e7e17e21 0
c_e7e17e29 0
c_e7e17e33 0
c_e7e18e21 0
c_e7e18e29 0
c_e7e18e33 0
c_e7e21e29 0
c_e7e21e33 0
c_e7e29e33 0
c_e8e10e17 1
c_e8e10e18 0
c_e8e10e21 0
c_e8e10e29 0
c_e8e10e33 0
c_e8e17e18 0
c_e8e17e21 0
c_e8e17e29 0
c_e8e17e33 0
c_e8e18e21 0
c_e8e18e29 0
c_e8e18e33 0
c_e8e21e29 0
c_e8e21e33 0
c_e8e29e33 0
c_e10e17e18 1
c_e10e17e21 0
c_e10e17e29 0
c_e10e17e33 0
c_e10e18e21 0
c_e10e18e29 0
c_e10e18e33 0
c_e10e21e29 0
c_e10e21e33 0
c_e10e29e33 0
c_e17e18e21 0
c_e17e18e29 1
c_e17e18e33 0
c_e17e21e29 0
c_e17e21e33 0
c_e17e29e33 0
c_e18e21e29 0
c_e18e21e33 0
c_e18e29e33 1
c_e21e29e33 0
c_e33e13e15 1
c_e33e13e32 0
c_e33e15e32 0
c_e13e15e32 1
c_e24e27e31 1
c_e0e1e2 1
c_e3e4e5 1
c_e20e18e19 0
c_e23e21e22 0
c_e34e24e25 0
c_e30e29e28 0
x_e0e34 0
x_e34e1 1
x_e0e1 1
x_e34e3 1
x_e0e3 1
x_e34e2 1
x_e0e2 1
x_e34e20 1
x_e0e20 1
x_e34e23 1
x_e0e23 1
x_e34e4 1
x_e0e4 1
x_e34e5 1
x_e0e5 1
x_e34e30 1
x_e0e30 0
x_e34e7 1
x_e0e7 1
x_e34e8 1
x_e0e8 1
x_e34e10 1
x_e0e10 1
x_e34e17 1
x_e0e17 1
x_e34e18 1
x_e0e18 1
x_e34e21 1
x_e0e21 1
x_e34e29 1
x_e0e29 1
x_e34e33 1
x_e0e33 1
x_e34e13 1
x_e0e13 1
x_e34e15 1
x_e0e15 1
x_e34e32 1
x_e0e32 1
x_e34e19 1
x_e0e19 1
x_e34e28 1
x_e0e28 1
x_e34e24 1
x_e0e24 0
x_e34e27 1
x_e0e27 0
x_e34e31 1
x_e0e31 0
x_e34e22 1
x_e0e22 1
x_e34e25 1
x_e0e25 0
x_e1e3 1
x_e1e2 1
x_e1e20 1
x_e1e23 1
x_e1e4 1
x_e1e5 1
x_e1e30 0
x_e1e7 1
x_e1e8 1
x_e1e10 1
x_e1e17 1
x_e1e18 1
x_e1e21 1
x_e1e29 1
x_e1e33 1
x_e1e13 1
x_e1e15 1
x_e1e32 1
x_e1e19 1
x_e1e28 1
x_e1e24 0
x_e1e27 0
x_e1e31 0
x_e1e22 1
x_e1e25 0
x_e3e2 0
x_e3e20 0
x_e3e23 0
x_e3e4 1
x_e3e5 1
x_e3e30 0
x_e3e7 0
x_e3e8 0
x_e3e10 0
x_e3e17 0
x_e3e18 0
x_e3e21 0
x_e3e29 0
x_e3e33 0
x_e3e13 0
x_e3e15 0
x_e3e32 0
x_e3e19 0
x_e3e28 0
x_e3e24 0
x_e3e27 0
x_e3e31 0
x_e3e22 0
x_e3e25 0
x_e2e20 1
x_e2e23 1
x_e2e4 1
x_e2e5 1
x_e2e30 0
x_e2e7 1
x_e2e8 1
x_e2e10 1
x_e2e17 1
x_e2e18 1
x_e2e21 1
x_e2e29 1
x_e2e33 1
x_e2e13 1
x_e2e15 1
x_e2e32 1
x_e2e19 1
x_e2e28 1
x_e2e24 0
x_e2e27 0
x_e2e31 0
x_e2e22 1
x_e2e25 0
x_e20e23 1
x_e20e4 1
x_e20e5 1
x_e20e30 0
x_e20e7 1
x_e20e8 1
x_e20e10 1
x_e20e17 1
x_e20e18 1
x_e20e21 1
x_e20e29 1
x_e20e33 1
x_e20e13 1
x_e20e15 1
x_e20e32 1
x_e20e19 1
x_e20e28 1
x_e20e24 0
x_e20e27 0
x_e20e31 0
x_e20e22 1
x_e20e25 0
x_e23e4 1
x_e23e5 1
x_e23e30 0
x_e23e7 1
x_e23e8 1
x_e23e10 1
x_e23e17 1
x_e23e18 1
x_e23e21 1
x_e23e29 1
x_e23e33 1
x_e23e13 1
x_e23e15 1
x_e23e32 1
x_e23e19 1
x_e23e28 1
x_e23e24 0
x_e23e27 0
x_e23e31 0
x_e23e22 1
x_e23e25 0
x_e4e5 1
x_e4e30 0
x_e4e7 0
x_e4e8 0
x_e4e10 0
x_e4e17 0
x_e4e18 0
x_e4e21 0
x_e4e29 0
x_e4e33 0
x_e4e13 0
x_e4e15 0
x_e4e32 0
x_e4e19 0
x_e4e28 0
x_e4e24 0
x_e4e27 0
x_e4e31 0
x_e4e22 0
x_e4e25 0
x_e5e30 0
x_e5e7 0
x_e5e8 0
x_e5e10 0
x_e5e17 0
x_e5e18 0
x_e5e21 0
x_e5e29 0
x_e5e33 0
x_e5e13 0
x_e5e15 0
x_e5e32 0
x_e5e19 0
x_e5e28 0
x_e5e24 0
x_e5e27 0
x_e5e31 0
x_e5e22 0
x_e5e25 0
x_e30e7 1
x_e30e8 1
x_e30e10 1
x_e30e17 1
x_e30e18 1
x_e30e21 1
x_e30e29 1
x_e30e33 1
x_e30e13 1
x_e30e15 1
x_e30e32 1
x_e30e19 1
x_e30e28 1
x_e30e24 0
x_e30e27 0
x_e30e31 0
x_e30e22 1
x_e30e25 1
x_e7e8 1
x_e7e10 1
x_e7e17 1
x_e7e18 1
x_e7e21 1
x_e7e29 1
x_e7e33 1
x_e7e13 1
x_e7e15 1
x_e7e32 1
x_e7e19 1
x_e7e28 1
x_e7e24 0
x_e7e27 0
x_e7e31 0
x_e7e22 1
x_e7e25 0
x_e8e10 1
x_e8e17 1
x_e8e18 1
x_e8e21 1
x_e8e29 1
x_e8e33 1
x_e8e13 1
x_e8e15 1
x_e8e32 1
x_e8e19 1
x_e8e28 1
x_e8e24 0
x_e8e27 0
x_e8e31 0
x_e8e22 1
x_e8e25 0
x_e10e17 1
x_e10e18 1
x_e10e21 1
x_e10e29 1
x_e10e33 1
x_e10e13 1
x_e10e15 1
x_e10e32 1
x_e10e19 1
x_e10e28 1
x_e10e24 0
x_e10e27 0
x_e10e31 0
x_e10e22 1
x_e10e25 0
x_e17e18 1
x_e17e21 1
x_e17e29 1
x_e17e33 1
x_e17e13 1
x_e17e15 1
x_e17e32 1
x_e17e19 1
x_e17e28 1
x_e17e24 0
x_e17e27 0
x_e17e31 0
x_e17e22 1
x_e17e25 0
x_e18e21 1
x_e18e29 1
x_e18e33 1
x_e18e13 1
x_e18e15 1
x_e18e32 1
x_e18e19 1
x_e18e28 1
x_e18e24 0
x_e18e27 0
x_e18e31 0
x_e18e22 1
x_e18e25 0
x_e21e29 0
x_e21e33 0
x_e21e13 0
x_e21e15 0
x_e21e32 0
x_e21e19 0
x_e21e28 0
x_e21e24 0
x_e21e27 0
x_e21e31 0
x_e21e22 0
x_e21e25 0
x_e29e33 1
x_e29e13 1
x_e29e15 1
x_e29e32 1
x_e29e19 1
x_e29e28 1
x_e29e24 0
x_e29e27 0
x_e29e31 0
x_e29e22 1
x_e29e25 0
x_e33e13 1
x_e33e15 1
x_e33e32 1
x_e33e19 1
x_e33e28 1
x_e33e24 0
x_e33e27 0
x_e33e31 0
x_e33e22 1
x_e33e25 0
x_e13e15 1
x_e13e32 1
x_e13e19 1
x_e13e28 1
x_e13e24 0
x_e13e27 0
x_e13e31 0
x_e13e22 1
x_e13e25 0
x_e15e32 1
x_e15e19 1
x_e15e28 1
x_e15e24 0
x_e15e27 0
x_e15e31 0
x_e15e22 1
x_e15e25 0
x_e32e19 1
x_e32e28 1
x_e32e24 0
x_e32e27 0
x_e32e31 0
x_e32e22 1
x_e32e25 0
x_e19e28 1
x_e19e24 0
x_e19e27 0
x_e19e31 0
x_e19e22 1
x_e19e25 0
x_e28e24 0
x_e28e27 0
x_e28e31 0
x_e28e22 1
x_e28e25 0
x_e24e27 1
x_e24e31 1
x_e24e22 1
x_e24e25 1
x_e27e31 1
x_e27e22 1
x_e27e25 1
x_e31e22 1
x_e31e25 1
x_e22e25 0
y_n0n1 1
y_n1n2 1
y_n0n2 1
y_n1n3 1
y_n0n3 1
y_n1n4 1
y_n0n4 1
y_n1n5 1
y_n0n5 1
y_n1n6 1
y_n0n6 1
y_n1n7 1
y_n0n7 1
y_n1n8 1
y_n0n8 1
y_n1n9 1
y_n0n9 1
y_n1n10 1
y_n0n10 1
y_n1n11 1
y_n0n11 1
y_n1n12 1
y_n0n12 1
y_n1n13 1
y_n0n13 1
y_n1n14 0
y_n0n14 1
y_n1n15 0
y_n0n15 0
y_n1n16 1
y_n0n16 1
y_n1n17 0
y_n0n17 0
y_n1n18 0
y_n0n18 0
y_n1n19 0
y_n0n19 0
y_n1n20 0
y_n0n20 0
y_n1n21 1
y_n0n21 1
y_n1n22 1
y_n0n22 1
y_n1n23 0
y_n0n23 0
y_n1n24 0
y_n0n24 0
y_n1n25 0
y_n0n25 0
y_n1n26 0
y_n0n26 0
y_n1n27 0
y_n0n27 0
y_n1n28 0
y_n0n28 0
y_n1n29 0
y_n0n29 0
y_n2n3 0
y_n2n4 0
y_n2n5 1
y_n2n6 1
y_n2n7 1
y_n2n8 1
y_n2n9 1
y_n2n10 1
y_n2n11 1
y_n2n12 1
y_n2n13 1
y_n2n14 0
y_n2n15 0
y_n2n16 1
y_n2n17 0
y_n2n18 0
y_n2n19 0
y_n2n20 0
y_n2n21 1
y_n2n22 1
y_n2n23 0
y_n2n24 0
y_n2n25 0
y_n2n26 0
y_n2n27 0
y_n2n28 0
y_n2n29 0
y_n3n4 1
y_n3n5 1
y_n3n6 1
y_n3n7 1
y_n3n8 1
y_n3n9 1
y_n3n10 1
y_n3n11 1
y_n3n12 1
y_n3n13 1
y_n3n14 0
y_n3n15 0
y_n3n16 1
y_n3n17 0
y_n3n18 0
y_n3n19 0
y_n3n20 0
y_n3n21 1
y_n3n22 1
y_n3n23 0
y_n3n24 0
y_n3n25 0
y_n3n26 0
y_n3n27 0
y_n3n28 0
y_n3n29 0
y_n4n5 1
y_n4n6 1
y_n4n7 1
y_n4n8 1
y_n4n9 1
y_n4n10 1
y_n4n11 1
y_n4n12 1
y_n4n13 1
y_n4n14 0
y_n4n15 0
y_n4n16 1
y_n4n17 0
y_n4n18 0
y_n4n19 0
y_n4n20 0
y_n4n21 1
y_n4n22 1
y_n4n23 0
y_n4n24 0
y_n4n25 0
y_n4n26 0
y_n4n27 0
y_n4n28 0
y_n4n29 0
y_n5n6 0
y_n5n7 0
y_n5n8 0
y_n5n9 0
y_n5n10 0
y_n5n11 0
y_n5n12 0
y_n5n13 0
y_n5n14 0
y_n5n15 0
y_n5n16 0
y_n5n17 0
y_n5n18 0
y_n5n19 0
y_n5n20 0
y_n5n21 0
y_n5n22 0
y_n5n23 0
y_n5n24 0
y_n5n25 0
y_n5n26 0
y_n5n27 0
y_n5n28 0
y_n5n29 0
y_n6n7 1
y_n6n8 1
y_n6n9 1
y_n6n10 1
y_n6n11 1
y_n6n12 1
y_n6n13 1
y_n6n14 0
y_n6n15 0
y_n6n16 1
y_n6n17 0
y_n6n18 0
y_n6n19 0
y_n6n20 0
y_n6n21 1
y_n6n22 1
y_n6n23 0
y_n6n24 0
y_n6n25 0
y_n6n26 0
y_n6n27 0
y_n6n28 0
y_n6n29 0
y_n7n8 0
y_n7n9 0
y_n7n10 0
y_n7n11 0
y_n7n12 0
y_n7n13 0
y_n7n14 0
y_n7n15 0
y_n7n16 0
y_n7n17 0
y_n7n18 0
y_n7n19 0
y_n7n20 0
y_n7n21 0
y_n7n22 0
y_n7n23 0
y_n7n24 0
y_n7n25 0
y_n7n26 0
y_n7n27 0
y_n7n28 0
y_n7n29 0
y_n8n9 0
y_n8n10 0
y_n8n11 0
y_n8n12 1
y_n8n13 0
y_n8n14 0
y_n8n15 0
y_n8n16 0
y_n8n17 0
y_n8n18 0
y_n8n19 0
y_n8n20 0
y_n8n21 0
y_n8n22 0
y_n8n23 0
y_n8n24 0
y_n8n25 0
y_n8n26 0
y_n8n27 0
y_n8n28 0
y_n8n29 0
y_n9n10 0
y_n9n11 0
y_n9n12 1
y_n9n13 0
y_n9n14 0
y_n9n15 0
y_n9n16 0
y_n9n17 0
y_n9n18 0
y_n9n19 0
y_n9n20 0
y_n9n21 0
y_n9n22 0
y_n9n23 0
y_n9n24 0
y_n9n25 0
y_n9n26 0
y_n9n27 0
y_n9n28 0
y_n9n29 0
y_n10n11 0
y_n10n12 1
y_n10n13 0
y_n10n14 0
y_n10n15 0
y_n10n16 0
y_n10n17 0
y_n10n18 0
y_n10n19 0
y_n10n20 0
y_n10n21 0
y_n10n22 0
y_n10n23 0
y_n10n24 0
y_n10n25 0
y_n10n26 0
y_n10n27 0
y_n10n28 0
y_n10n29 0
y_n11n12 1
y_n11n13 1
y_n11n14 0
y_n11n15 0
y_n11n16 1
y_n11n17 0
y_n11n18 0
y_n11n19 0
y_n11n20 0
y_n11n21 0
y_n11n22 0
y_n11n23 0
y_n11n24 0
y_n11n25 0
y_n11n26 0
y_n11n27 0
y_n11n28 0
y_n11n29 0
y_n12n13 0
y_n12n14 0
y_n12n15 0
y_n12n16 0
y_n12n17 0
y_n12n18 0
y_n12n19 0
y_n12n20 0
y_n12n21 0
y_n12n22 0
y_n12n23 0
y_n12n24 0
y_n12n25 0
y_n12n26 0
y_n12n27 0
y_n12n28 0
y_n12n29 0
y_n13n14 0
y_n13n15 0
y_n13n16 0
y_n13n17 0
y_n13n18 0
y_n13n19 0
y_n13n20 0
y_n13n21 0
y_n13n22 0
y_n13n23 0
y_n13n24 0
y_n13n25 0
y_n13n26 0
y_n13n27 0
y_n13n28 0
y_n13n29 0
y_n14n15 0
y_n14n16 1
y_n14n17 0
y_n14n18 0
y_n14n19 0
y_n14n20 0
y_n14n21 1
y_n14n22 1
y_n14n23 0
y_n14n24 0
y_n14n25 0
y_n14n26 0
y_n14n27 0
y_n14n28 0
y_n14n29 0
y_n15n16 1
y_n15n17 0
y_n15n18 0
y_n15n19 0
y_n15n20 0
y_n15n21 1
y_n15n22 1
y_n15n23 0
y_n15n24 0
y_n15n25 0
y_n15n26 0
y_n15n27 0
y_n15n28 0
y_n15n29 0
y_n16n17 0
y_n16n18 0
y_n16n19 0
y_n16n20 0
y_n16n21 0
y_n16n22 0
y_n16n23 0
y_n16n24 0
y_n16n25 0
y_n16n26 0
y_n16n27 0
y_n16n28 0
y_n16n29 0
y_n17n18 1
y_n17n19 0
y_n17n20 0
y_n17n21 1
y_n17n22 1
y_n17n23 0
y_n17n24 1
y_n17n25 1
y_n17n26 1
y_n17n27 1
y_n17n28 1
y_n17n29 0
y_n18n19 0
y_n18n20 0
y_n18n21 1
y_n18n22 1
y_n18n23 0
y_n18n24 0
y_n18n25 0
y_n18n26 0
y_n18n27 0
y_n18n28 0
y_n18n29 0
y_n19n20 1
y_n19n21 1
y_n19n22 1
y_n19n23 1
y_n19n24 1
y_n19n25 1
y_n19n26 1
y_n19n27 1
y_n19n28 1
y_n19n29 1
y_n20n21 1
y_n20n22 1
y_n20n23 1
y_n20n24 1
y_n20n25 1
y_n20n26 1
y_n20n27 1
y_n20n28 1
y_n20n29 1
y_n21n22 1
y_n21n23 0
y_n21n24 0
y_n21n25 0
y_n21n26 0
y_n21n27 0
y_n21n28 0
y_n21n29 0
y_n22n23 0
y_n22n24 0
y_n22n25 0
y_n22n26 0
y_n22n27 0
y_n22n28 0
y_n22n29 0
y_n23n24 1
y_n23n25 1
y_n23n26 1
y_n23n27 1
y_n23n28 1
y_n23n29 0
y_n24n25 1
y_n24n26 1
y_n24n27 1
y_n24n28 1
y_n24n29 0
y_n25n26 1
y_n25n27 1
y_n25n28 1
y_n25n29 0
y_n26n27 1
y_n26n28 0
y_n26n29 0
y_n27n28 0
y_n27n29 0
y_n28n29 0
pos_e0 6
pos_e34 0
pos_e1 7
pos_e3 25
pos_e2 8
pos_e20 9
pos_e23 10
pos_e4 26
pos_e5 27
pos_e30 4
pos_e7 11
pos_e8 12
pos_e10 13
pos_e17 14
pos_e18 15
pos_e21 24
pos_e29 16
pos_e33 17
pos_e13 18
pos_e15 19
pos_e32 20
pos_e19 21
pos_e28 22
pos_e24 1
pos_e27 2
pos_e31 3
pos_e22 23
pos_e25 5
z_e2e20 1
z_e2e23 0
z_e20e2 0
z_e20e23 1
z_e23e2 0
z_e23e20 0
z_e7e8 1
z_e7e10 0
z_e7e17 0
z_e7e18 0
z_e7e21 0
z_e7e29 0
z_e7e33 0
z_e8e7 0
z_e8e10 1
z_e8e17 0
z_e8e18 0
z_e8e21 0
z_e8e29 0
z_e8e33 0
z_e10e7 0
z_e10e8 0
z_e10e17 1
z_e10e18 0
z_e10e21 0
z_e10e29 0
z_e10e33 0
z_e17e7 0
z_e17e8 0
z_e17e10 0
z_e17e18 1
z_e17e21 0
z_e17e29 0
z_e17e33 0
z_e18e7 0
z_e18e8 0
z_e18e10 0
z_e18e17 0
z_e18e21 0
z_e18e29 1
z_e18e33 0
z_e21e7 0
z_e21e8 0
z_e21e10 0
z_e21e17 0
z_e21e18 0
z_e21e29 0
z_e21e33 0
z_e29e7 0
z_e29e8 0
z_e29e10 0
z_e29e17 0
z_e29e18 0
z_e29e21 0
z_e29e33 1
z_e33e7 0
z_e33e8 0
z_e33e10 0
z_e33e17 0
z_e33e18 0
z_e33e21 0
z_e33e29 0
z_e33e13 1
z_e33e15 0
z_e33e32 0
z_e13e33 0
z_e13e15 1
z_e13e32 0
z_e15e33 0
z_e15e13 0
z_e15e32 1
z_e32e33 0
z_e32e13 0
z_e32e15 0
z_e24e27 1
z_e24e31 0
z_e27e24 0
z_e27e31 1
z_e31e24 0
z_e31e27 0
z_e0e1 1
z_e0e2 0
z_e1e0 0
z_e1e2 1
z_e2e0 0
z_e2e1 0
z_e3e4 1
z_e3e5 0
z_e4e3 0
z_e4e5 1
z_e5e3 0
z_e5e4 0
z_e20e18 0
z_e20e19 0
z_e18e20 0
z_e18e19 0
z_e19e20 0
z_e19e18 0
z_e23e21 0
z_e23e22 0
z_e21e23 0
z_e21e22 0
z_e22e23 0
z_e22e21 0
z_e34e24 0
z_e34e25 0
z_e24e34 0
z_e24e25 0
z_e25e34 0
z_e25e24 0
z_e30e29 0
z_e30e28 0
z_e29e30 0
z_e29e28 0
z_e28e30 0
z_e28e29 0
