lp_solutions/grafo10051.30.log

Gurobi 11.0.1 (mac64[x86], gurobi_cl) logging started Wed May 22 15:29:12 2024

Set parameter Username
Set parameter TimeLimit to value 120
Set parameter LogFile to value "./lp_solutions/grafo10051.30.log"
Using license file /Users/sara/gurobi.lic
Academic license - for non-commercial use only - expires 2025-05-12

Gurobi Optimizer version 11.0.1 build v11.0.1rc0 (mac64[x86] - Darwin 21.6.0 21G651)
Copyright (c) 2024, Gurobi Optimization, LLC

Read LP format model from file ./lp_problems/grafo10051.30.lp
Reading time = 0.03 seconds
: 21883 rows, 1297 columns, 66189 nonzeros

CPU model: Intel(R) Core(TM) i5-1038NG7 CPU @ 2.00GHz
Thread count: 4 physical cores, 8 logical processors, using up to 8 threads

Optimize a model with 21883 rows, 1297 columns and 66189 nonzeros
Model fingerprint: 0x1407d30d
Variable types: 35 continuous, 1262 integer (1262 binary)
Coefficient statistics:
  Matrix range     [1e+00, 5e+01]
  Objective range  [1e+00, 1e+00]
  Bounds range     [1e+00, 1e+00]
  RHS range        [1e+00, 5e+01]
Found heuristic solution: objective 58.0000000
Presolve removed 471 rows and 181 columns
Presolve time: 0.10s
Presolved: 21412 rows, 1116 columns, 65074 nonzeros
Variable types: 0 continuous, 1116 integer (1088 binary)

Root relaxation: objective 1.153714e+02, 3061 iterations, 0.73 seconds (0.70 work units)

    Nodes    |    Current Node    |     Objective Bounds      |     Work
 Expl Unexpl |  Obj  Depth IntInf | Incumbent    BestBd   Gap | It/Node Time

     0     0  115.37143    0  236   58.00000  115.37143  98.9%     -    1s
H    0     0                      65.0000000  115.37143  77.5%     -    1s
H    0     0                      69.0000000  115.37143  67.2%     -    1s
     0     0  115.37143    0  236   69.00000  115.37143  67.2%     -    1s
     0     0  115.37143    0  232   69.00000  115.37143  67.2%     -    3s
H    0     0                      70.0000000  115.37143  64.8%     -    3s
     0     0  105.55613    0  229   70.00000  105.55613  50.8%     -    3s
H    0     0                      71.0000000  105.55613  48.7%     -    3s
     0     0  105.55613    0  228   71.00000  105.55613  48.7%     -    3s
H    0     0                      73.0000000  100.84244  38.1%     -    4s
     0     0  100.84244    0  241   73.00000  100.84244  38.1%     -    4s
H    0     0                      74.0000000  100.84244  36.3%     -    4s
     0     0  100.82773    0  222   74.00000  100.82773  36.3%     -    4s
     0     0  100.82765    0  234   74.00000  100.82765  36.3%     -    4s
     0     0   98.71955    0  274   74.00000   98.71955  33.4%     -    5s
     0     0   98.29932    0  252   74.00000   98.29932  32.8%     -    5s
     0     0   98.29932    0  261   74.00000   98.29932  32.8%     -    5s
     0     0   97.95593    0  254   74.00000   97.95593  32.4%     -    6s
     0     0   97.94212    0  254   74.00000   97.94212  32.4%     -    6s
     0     0   97.94163    0  242   74.00000   97.94163  32.4%     -    6s
     0     0   97.49515    0  247   74.00000   97.49515  31.8%     -    7s
     0     0   97.25000    0  213   74.00000   97.25000  31.4%     -    7s
     0     0   97.25000    0  161   74.00000   97.25000  31.4%     -    7s
     0     0   97.25000    0  209   74.00000   97.25000  31.4%     -    7s
H    0     0                      75.0000000   97.25000  29.7%     -    7s
     0     0   97.25000    0  194   75.00000   97.25000  29.7%     -    8s
     0     0   97.12500    0  192   75.00000   97.12500  29.5%     -    8s
     0     0   97.00000    0  183   75.00000   97.00000  29.3%     -    8s
     0     0   97.00000    0  197   75.00000   97.00000  29.3%     -    8s
     0     0   97.00000    0  202   75.00000   97.00000  29.3%     -    9s
     0     0   96.95833    0  183   75.00000   96.95833  29.3%     -    9s
     0     0   96.83333    0  184   75.00000   96.83333  29.1%     -    9s
     0     0   96.83333    0  186   75.00000   96.83333  29.1%     -    9s
     0     0   96.83333    0  186   75.00000   96.83333  29.1%     -    9s
     0     0   96.78947    0  172   75.00000   96.78947  29.1%     -    9s
     0     0   96.71429    0  161   75.00000   96.71429  29.0%     -    9s
     0     0   96.71429    0  171   75.00000   96.71429  29.0%     -   10s
     0     0   96.71429    0  163   75.00000   96.71429  29.0%     -   10s
     0     0   96.71429    0  193   75.00000   96.71429  29.0%     -   10s
     0     0   96.71429    0  198   75.00000   96.71429  29.0%     -   10s
     0     0   96.71429    0  186   75.00000   96.71429  29.0%     -   10s
     0     0   96.71429    0  184   75.00000   96.71429  29.0%     -   10s
     0     0   96.71429    0   80   75.00000   96.71429  29.0%     -   11s
     0     0   96.71429    0   68   75.00000   96.71429  29.0%     -   11s
     0     0   96.71429    0  102   75.00000   96.71429  29.0%     -   12s
     0     0   96.71429    0  134   75.00000   96.71429  29.0%     -   12s
     0     0   96.71429    0   66   75.00000   96.71429  29.0%     -   13s
     0     0   96.71429    0   63   75.00000   96.71429  29.0%     -   13s
     0     0   96.71429    0  104   75.00000   96.71429  29.0%     -   14s
     0     0   96.71429    0   55   75.00000   96.71429  29.0%     -   14s
     0     2   96.71429    0   46   75.00000   96.71429  29.0%     -   15s
H   59    54                      76.0000000   96.52632  27.0%   173   16s
   167   123   88.97143   32  191   76.00000   96.52632  27.0%   271   20s
   227   171   86.91429   41  252   76.00000   96.52632  27.0%   357   25s
   260   188 infeasible   44        76.00000   96.52632  27.0%   444   30s
   334   232 infeasible   57        76.00000   96.48571  27.0%   469   37s
   368   264   92.86898   13  144   76.00000   96.48571  27.0%   472   41s
   456   320   83.94029   42  265   76.00000   96.48571  27.0%   444   47s
   491   343   82.00000   48  154   76.00000   96.48571  27.0%   466   50s
   569   395   81.94949   56  189   76.00000   96.48571  27.0%   479   55s
   666   456   91.61477   25  166   76.00000   96.30382  26.7%   490   69s
   670   472   90.73074   28  158   76.00000   96.30382  26.7%   490   70s
   770   523   86.80779   39  214   76.00000   96.30382  26.7%   504   75s
   863   564   85.63869   42  191   76.00000   96.30382  26.7%   514   80s
   966   631   88.94286   21  131   76.00000   96.21913  26.6%   526   85s
  1065   691 infeasible   38        76.00000   96.21913  26.6%   541   91s
H 1066   691                      77.0000000   96.21913  25.0%   540   91s
  1117   741   83.91621   41  229   77.00000   96.21913  25.0%   554   96s
  1202   806   82.84502   46  202   77.00000   96.21913  25.0%   562  100s
  1377   899   84.50909   52  236   77.00000   96.00000  24.7%   566  115s

Cutting planes:
  Learned: 1
  Gomory: 18
  Cover: 1
  MIR: 15
  Flow cover: 6
  Inf proof: 8
  Zero half: 8
  RLT: 8

Explored 1382 nodes (830136 simplex iterations) in 120.03 seconds (143.55 work units)
Thread count was 8 (of 8 available processors)

Solution count 10: 77 77 76 ... 70

Time limit reached
Best objective 7.700000000000e+01, best bound 9.600000000000e+01, gap 24.6753%

Wrote result file './lp_solutions/grafo10051.30.sol'

